c Random CNF formula
p cnf 10 30
5 -8 2 0
7 -9 4 0
8 9 1 0
-6 7 -2 0
-10 7 2 0
-6 -3 -2 0
-9 -10 6 0
-8 9 6 0
-4 -7 9 0
-1 10 -6 0
-7 -8 5 0
7 10 -9 0
6 -1 -3 0
9 7 -1 0
-5 7 3 0
-6 -1 2 0
-8 -7 5 0
8 4 -5 0
9 4 3 0
-7 -6 2 0
7 -10 -5 0
5 2 -6 0
9 2 7 0
-10 5 8 0
-10 -9 -6 0
3 10 -2 0
-8 -10 -1 0
-9 -7 4 0
-6 -1 -4 0
7 10 -2 0
